8 5 1 2 0 0 5 4 4 -1 
0 9 2 5 6 7 1 6 5 -1 
-1 4 0 4 0 8 1 2 2 -1 
9 1 9 6 4 9 9 3 2 -1 
6 0 0 8 9 8 3 6 3 -1 
9 7 6 1 -1 4 8 3 2 -1 
-1 1 0 1 9 -1 1 0 0 -1 
-1 -1 6 9 6 9 8 -1 -1 -1 
4 10 5 9 6 4 8 10 9 -1 
3 7 5 5 0 8 2 10 -1 -1 
7 5 8 8 3 8 1 1 -1 -1 
6 7 5 10 3 6 7 3 0 -1 
3 -1 -1 7 4 0 0 7 6 -1 
10 -1 10 6 2 1 8 -1 9 -1 
1 1 0 6 9 5 0 8 -1 -1 
